Version identifier: 20.1.0.0 | 2020-11-10 | 9bedb6d68
Tried aggregator 2 times.
MIP Presolve eliminated 1262 rows and 678 columns.
MIP Presolve modified 3176 coefficients.
Aggregator did 137 substitutions.
Reduced MIP has 1810 rows, 1400 columns, and 5940 nonzeros.
Reduced MIP has 261 binaries, 1139 generals, 0 SOSs, and 0 indicators.
Presolve time = 0.02 sec. (7.41 ticks)
Found incumbent of value 2274.000000 after 0.03 sec. (14.61 ticks)
Probing fixed 40 vars, tightened 434 bounds.
Probing time = 0.00 sec. (1.19 ticks)
Tried aggregator 2 times.
Detecting symmetries...
MIP Presolve eliminated 778 rows and 54 columns.
MIP Presolve modified 117 coefficients.
Aggregator did 10 substitutions.
Reduced MIP has 1022 rows, 1336 columns, and 3336 nonzeros.
Reduced MIP has 391 binaries, 945 generals, 0 SOSs, and 0 indicators.
Presolve time = 0.01 sec. (4.77 ticks)
Probing time = 0.00 sec. (0.28 ticks)
Clique table members: 45.
MIP emphasis: balance optimality and feasibility.
MIP search method: dynamic search.
Parallel mode: deterministic, using up to 24 threads.
Root relaxation solution time = 0.01 sec. (2.51 ticks)

        Nodes                                         Cuts/
   Node  Left     Objective  IInf  Best Integer    Best Bound    ItCnt     Gap

*     0+    0                         2274.0000        0.0000           100.00%
*     0+    0                           43.0000        0.0000           100.00%
      0     0        0.0000    61       43.0000        0.0000      291  100.00%
      0     0        0.0000    34       43.0000      Cuts: 69      553  100.00%
*     0+    0                           19.0000        0.0000           100.00%
      0     0        0.0526   215       19.0000     Cuts: 140      747   99.72%
      0     0        0.4597   319       19.0000     Cuts: 117      890   97.58%
      0     0        0.6429   302       19.0000     Cuts: 117      986   96.62%
      0     0        0.7000   270       19.0000      Cuts: 95     1064   96.32%
      0     0        0.8148   320       19.0000      Cuts: 75     1151   95.71%
*     0+    0                           11.0000        0.8148            92.59%
      0     0        cutoff             11.0000       11.0000     1439    0.00%
Elapsed time = 0.62 sec. (107.65 ticks, tree = 0.01 MB, solutions = 4)

Cover cuts applied:  10
Implied bound cuts applied:  56
Flow cuts applied:  12
Mixed integer rounding cuts applied:  22
Zero-half cuts applied:  178
Lift and project cuts applied:  2
Gomory fractional cuts applied:  9

Root node processing (before b&c):
  Real time             =    0.62 sec. (107.78 ticks)
Parallel b&c, 24 threads:
  Real time             =    0.00 sec. (0.00 ticks)
  Sync time (average)   =    0.00 sec.
  Wait time (average)   =    0.00 sec.
                          ------------
Total (root+branch&cut) =    0.62 sec. (107.78 ticks)

Solution status = Optimal
Solution LB = 11
Solution UB = 11
Runtime = 0.629968 seconds
	Command being timed: "/home/min/git_repos/CS598MEBProject/CNT-ILP/build/cnt -s 2 ./output/k8_n20/simC_c1_k8_n20_u2_s3_del04.input-left.cnp"
	User time (seconds): 9.27
	System time (seconds): 0.10
	Percent of CPU this job got: 1394%
	Elapsed (wall clock) time (h:mm:ss or m:ss): 0:00.67
	Average shared text size (kbytes): 0
	Average unshared data size (kbytes): 0
	Average stack size (kbytes): 0
	Average total size (kbytes): 0
	Maximum resident set size (kbytes): 97640
	Average resident set size (kbytes): 0
	Major (requiring I/O) page faults: 0
	Minor (reclaiming a frame) page faults: 21749
	Voluntary context switches: 6261
	Involuntary context switches: 1359
	Swaps: 0
	File system inputs: 0
	File system outputs: 16
	Socket messages sent: 0
	Socket messages received: 0
	Signals delivered: 0
	Page size (bytes): 4096
	Exit status: 0
